* ; COMMAND-LINE: --bitblast=eager
* (set-logic QF_BV)
* (set-info :status unsat)
* (declare-const x (_ BitVec 1))
* (assert (= (_ bv2 4) ((_ zero_extend 3) x)))
* (check-sat)
* unsat
* #variable= 12 #constraint= 12
+1 x9 -1 x5 = 0;
+1 x10 = 0;
+1 x11 = 0;
+1 x12 -1 x8 = 0;
+1 x10 -1 x6 = 0;
+1 x4 = 0;
+1 x3 = 0;
+1 x2 = 1;
+1 x11 -1 x7 = 0;
+1 x1 = 0;
+1 x12 = 0;
+1 x1 +2 x2 +4 x3 +8 x4 -1 x5 -2 x6 -4 x7 -8 x8 = 0;
